; printing sygus problem  

(set-logic LIA)
(declare-var x1 Int)

(declare-var x2 Int)

(declare-var x3 Int)

(declare-var x4 Int)

(declare-var k Int)

(synth-fun findIdx((y1 Int)(y2 Int)(y3 Int)(y4 Int)(k1 Int)) Int
((NTInt Int)(NTbool Bool))
((NTInt Int (y1 y2 y3 y4 k1 0 1 (- NTInt) (+ NTInt NTInt) (- NTInt NTInt) (ite NTbool NTInt NTInt) ))
(NTbool Bool ((not NTbool) (and NTbool NTbool) (or NTbool NTbool) (ite NTbool NTbool NTbool) (= NTInt NTInt) (< NTInt NTInt) (> NTInt NTInt) ))
)
)

(constraint (=> (and (< x1 x2) (and (< x2 x3) (< x3 x4))) (=> (< k x1) (= (findIdx x1 x2 x3 x4 k ) 0))))
(constraint (=> (and (< x1 x2) (and (< x2 x3) (< x3 x4))) (=> (> k x4) (= (findIdx x1 x2 x3 x4 k ) 4))))
(constraint (=> (and (< x1 x2) (and (< x2 x3) (< x3 x4))) (=> (and (> k x1) (< k x2)) (= (findIdx x1 x2 x3 x4 k ) 1))))
(constraint (=> (and (< x1 x2) (and (< x2 x3) (< x3 x4))) (=> (and (> k x2) (< k x3)) (= (findIdx x1 x2 x3 x4 k ) 2))))
(constraint (=> (and (< x1 x2) (and (< x2 x3) (< x3 x4))) (=> (and (> k x3) (< k x4)) (= (findIdx x1 x2 x3 x4 k ) 3))))
(check-synth)


